J=10;
K=10;
E=[8, 37, 31, 34, 7, 10, 19, 39, 13, 14];
A=[0.4, 0.3, 0.4, 0.2, 0.3, 0.5, 0.4, 0.5, 0.2, 0.5];
G=[1, 1, 0, 1, 0, 1, 0, 0, 0, 1];
F=[12, 15, 1, 2, 2, 12, 8, 5, 5, 10];
V=[0.43, 0.15, 0.25, 0.26, 0.25, 0.5, 0.37, 0.23, 0.3, 0.15];
P_inf=[85, 0, 35, 20, 0, 20, 50, 10, 0, 0];
P_sup=[400, 250, 450, 800, 430, 490, 220, 320, 450, 250];
Sup=[280, 150, 125, 160, 30, 140, 125, 115, 100, 95];
Inf=[105, 140, 100, 50, 200, 40, 30, 145, 75, 55];
P0=[198, 200, 0, 200, 0, 220, 0, 0, 0, 125];
D=[500, 300, 250, 350, 300, 500, 470, 380, 340, 450];
R=[15, 50, 40, 50, 30, 100, 45, 20, 35, 10];